c turning on binary mode checking
c parsing input formula with 202048 variables and 780985 clauses
c finished parsing, read 16358238 bytes from proof file
c detected empty clause; start verification via backward checking
c 11853 of 780985 clauses in core                            
c 10480 of 454091 lemmas in core using 100274 resolution steps
c 0 RAT lemmas in core; 691 redundant literals in core lemmas
s VERIFIED
c verification time: 2.330 seconds
